9
-1 26 27 100 32 25 76 10 18 
26 -1 54 91 77 77 58 94 52 
27 54 -1 30 31 30 20 12 12 
100 91 30 -1 92 93 69 22 30 
32 77 31 92 -1 51 64 22 80 
25 77 30 93 51 -1 45 77 47 
76 58 20 69 64 45 -1 52 10 
10 94 12 22 22 77 52 -1 2 
18 52 12 30 80 47 10 2 -1 
